This is Ipopt version 3.12.13, running with linear solver ma57.

Number of nonzeros in equality constraint Jacobian...:        0
Number of nonzeros in inequality constraint Jacobian.:     9144
Number of nonzeros in Lagrangian Hessian.............:       21

Total number of variables............................:        6
                     variables with only lower bounds:        0
                variables with lower and upper bounds:        6
                     variables with only upper bounds:        0
Total number of equality constraints.................:        0
Total number of inequality constraints...............:     1524
        inequality constraints with only lower bounds:        0
   inequality constraints with lower and upper bounds:        0
        inequality constraints with only upper bounds:     1524

iter    objective    inf_pr   inf_du lg(mu)  ||d||  lg(rg) alpha_du alpha_pr  ls
   0  9.0015470e-02 3.48e-01 4.81e+00   0.0 0.00e+00    -  0.00e+00 0.00e+00   0
   1  9.9300050e-02 3.44e-01 5.07e+00  -5.2 1.90e+00    -  8.38e-02 3.56e-02h  1
   2  1.0552432e-01 3.42e-01 2.53e+01  -1.3 4.84e+00    -  2.86e-02 3.58e-03h  1
   3  1.0744119e-01 3.42e-01 1.65e+02  -5.2 7.45e+00    -  5.13e-03 7.42e-04h  1
   4r 1.0744119e-01 3.42e-01 9.99e+02  -0.5 0.00e+00    -  0.00e+00 2.52e-07R  6
   5r 2.5310359e-01 3.19e-01 9.98e+02   0.9 3.02e+02    -  2.14e-03 1.43e-03f  1
   6r 4.2016293e-01 2.82e-01 9.94e+02   1.3 1.03e+02    -  6.30e-03 3.10e-03f  1
   7r 5.0628398e-01 2.73e-01 9.89e+02   1.7 6.45e+01    -  1.14e-02 4.45e-03f  1
   8r 5.4037339e-01 2.65e-01 9.77e+02   0.3 2.27e+01    -  7.48e-02 1.08e-02f  1
   9r 5.5818106e-01 2.63e-01 2.94e+03   0.3 2.38e+00    -  9.94e-01 3.56e-02f  1
iter    objective    inf_pr   inf_du lg(mu)  ||d||  lg(rg) alpha_du alpha_pr  ls
  10  5.6116929e-01 2.62e-01 4.50e+02  -0.5 1.94e+00    -  4.65e-02 4.24e-03h  1
  11  5.5439458e-01 2.63e-01 7.67e+04   1.0 2.07e+01    -  9.94e-01 1.70e-03h  1
  12  5.5452653e-01 2.63e-01 1.06e+06  -5.0 2.47e+01    -  1.13e-03 3.66e-05h  1
  13  5.5767731e-01 2.62e-01 1.84e+05   3.0 5.79e+01    -  2.93e-04 6.37e-04h  1
  14  5.3287487e-01 2.62e-01 4.09e+05   3.1 1.13e+02    -  3.14e-04 6.19e-04h  1
  15r 5.3287487e-01 2.62e-01 1.00e+03   3.1 0.00e+00    -  0.00e+00 4.98e-07R  5
  16r 5.6341671e-01 2.62e-01 7.56e+02  -3.1 1.30e+00    -  4.86e-01 7.90e-02f  1
  17r 4.0910368e-01 2.62e-01 6.23e+02   0.8 5.03e+00    -  4.93e-01 2.06e-01f  1
  18r 4.7905257e-01 2.63e-01 9.63e+02   0.7 9.28e-01    -  1.00e+00 8.86e-01f  1
  19r 5.5661155e-01 2.63e-01 1.14e+03   0.9 5.84e-01    -  6.05e-01 3.65e-01f  1
iter    objective    inf_pr   inf_du lg(mu)  ||d||  lg(rg) alpha_du alpha_pr  ls
  20r 5.6056455e-01 2.63e-01 1.65e+02   0.7 1.17e-01    -  1.00e+00 8.77e-01f  1
  21r 5.6382150e-01 2.63e-01 2.10e+01   0.4 1.63e-02    -  1.00e+00 1.00e+00f  1
  22r 5.6560634e-01 2.63e-01 7.05e+01  -0.8 5.96e-03    -  1.00e+00 7.96e-01f  1
  23r 5.6618185e-01 2.63e-01 4.72e+01  -1.2 1.54e-03    -  1.00e+00 8.96e-01f  1
  24r 5.6630202e-01 2.63e-01 1.88e+01  -2.2 3.12e-04    -  1.00e+00 8.37e-01f  1
  25r 5.6632588e-01 2.63e-01 6.27e+01  -2.7 6.17e-05    -  1.00e+00 8.59e-01f  1
  26r 5.6633209e-01 2.63e-01 4.84e-01  -3.7 1.33e-05    -  1.00e+00 9.96e-01f  1

Number of Iterations....: 26

                                   (scaled)                 (unscaled)
Objective...............:   5.6633232643563725e-01    5.6633232643563725e-01
Dual infeasibility......:   4.1562965474131347e-01    4.1562965474131347e-01
Constraint violation....:   2.6261979165344501e-01    2.6261979165344501e-01
Complementarity.........:   4.0696282009287519e-06    4.0696282009287519e-06
Overall NLP error.......:   4.1562965474131347e-01    4.1562965474131347e-01


Number of objective function evaluations             = 39
Number of objective gradient evaluations             = 13
Number of equality constraint evaluations            = 0
Number of inequality constraint evaluations          = 39
Number of equality constraint Jacobian evaluations   = 0
Number of inequality constraint Jacobian evaluations = 30
Number of Lagrangian Hessian evaluations             = 27
Total CPU secs in IPOPT (w/o function evaluations)   =      0.045
Total CPU secs in NLP function evaluations           =      0.092

EXIT: Converged to a point of local infeasibility. Problem may be infeasible.
